zr4 o8                                  
   1.00000000000000     
     5.1275655116282968    0.0000000000000000    0.0236852304838149
     0.0000000000000000    5.2152182174089265    0.0000000000000000
    -0.9026485465536270    0.0000000000000000    5.2146182692190512
   Zr   O 
     4     8
Direct
  0.2772816785042025  0.9570907441624664  0.2093989431333544
  0.2772816835041993  0.5429092558375336  0.7093989491333549
  0.7227183334957984  0.4570906981624697  0.2906010408666445
  0.7227183394957989  0.0429092788375318  0.7906011138666468
  0.9290313796564609  0.1618445758766193  0.1600647291311530
  0.9290313706564637  0.3381554351233851  0.6600647241311559
  0.4483349633461822  0.2578912004847186  0.9801693423055473
  0.5516650706538132  0.7578912004847185  0.5198307206944472
  0.4483349393461873  0.2421087995152815  0.4801692923055501
  0.5516650746538135  0.7421087995152815  0.0198307016944494
  0.0709686063435383  0.6618445648766147  0.3399352658688435
  0.0709685953435339  0.8381553901233851  0.8399352498688490
 
  0.00000000E+00  0.00000000E+00  0.00000000E+00
  0.00000000E+00  0.00000000E+00  0.00000000E+00
  0.00000000E+00  0.00000000E+00  0.00000000E+00
  0.00000000E+00  0.00000000E+00  0.00000000E+00
  0.00000000E+00  0.00000000E+00  0.00000000E+00
  0.00000000E+00  0.00000000E+00  0.00000000E+00
  0.00000000E+00  0.00000000E+00  0.00000000E+00
  0.00000000E+00  0.00000000E+00  0.00000000E+00
  0.00000000E+00  0.00000000E+00  0.00000000E+00
  0.00000000E+00  0.00000000E+00  0.00000000E+00
  0.00000000E+00  0.00000000E+00  0.00000000E+00
  0.00000000E+00  0.00000000E+00  0.00000000E+00
