generated by phonopy 
1.0
     20.51030558015857        0.0        0.0947411230257034   
     0.0        20.860917147463063        0.0   
     -3.6106018498087886        0.0        20.858517349609922   
Zr O 
256   512   
Cartesian
 -1.156085030623753  1.2059708210784816  -7.136410832497273
 -1.2930499937341968  -0.4527329647789134  -7.396301335088294
 -1.6483928367120877  1.0158628682616653  -6.727812692393802
 -0.8698343390390317  -1.0641916639286808  -6.593387325684155
 -8.901504694026082  8.487363815361661  7.135005608180705
 -8.844192946183545  9.303924087477272  7.920478562602579
 -8.951699910312808  7.492040942939613  7.355673368657643
 -7.881949382315635  8.624526803169537  7.888531029361075
 6.68065870188174  -4.944169545858398  1.8320228887938088
 6.736804424631131  -3.979622948912812  2.2922898723478973
 3.1275965655618143  -4.762727336411295  20.37171720594545
 4.421431817404636  -4.137955406993245  20.97794937418953
 -1.3266005210294092  -8.655342305462185  11.779341912553198
 1.0419318397890929  -9.859262852396236  13.292791984228195
 1.2310604993349252  -8.714102399657484  11.251141323743738
 0.6604767469804003  -10.264600062506204  12.102932043238864
 1.5849811954089108  -4.073497610752852  3.623770345081109
 2.1365313621836144  -4.147419560857952  3.084104838637768
 2.6409245684790688  -4.683880181715743  1.4100849567052507
 3.606620009446236  -4.563604989305652  2.3877141405938107
 -4.1588853874575245  10.572633254809924  13.016695127270124
 -4.083619948595592  11.103764719485392  14.221372388558162
 -4.3384645216862205  10.535104080307468  13.85260615581609
 -3.8808776344425344  10.448590234634295  14.850294858051964
 -5.167151857751691  -2.716214438086091  3.1086911195974345
 -6.49094764643929  -4.244049208106152  2.6279595928613944
 -5.049362751622894  -3.999064169515336  1.944933156425748
 -5.381874001745642  -4.427642501074551  3.2909628755771188
 3.01652788253074  11.375260221181636  13.074067850985008
 3.310621741637631  13.16969737576322  13.561185891326266
 2.6058454395805906  11.70488527380694  13.02613188348216
 2.958388625248201  13.015893695404092  13.968459950141492
 7.716470159943638  2.944038642962516  -3.9142105449776703
 8.954360107243481  1.9637951370535909  -3.1484466099356765
 8.395804299573497  3.0320685229531907  -4.27239807910624
 10.483790783602537  2.3426349703187785  -4.318335550736942
 6.018394726078929  7.317913131831952  -0.6429741934565847
 7.460705429560399  7.017846252113066  0.9665994365041444
 7.770514170285439  8.077962097599734  0.2564667668965877
 5.5434982124135725  7.188244357312367  -0.1891107374754206
 1.6132838732522017  11.164544339191345  20.338245695011896
 1.8589359783817367  10.761108318269766  20.27436563792028
 1.5614422123265546  9.852575301621789  19.015283892463746
 2.7499584337080054  9.545923131730754  20.466021758067132
 -12.45949434526386  18.910751178208304  25.256749051798884
 -13.093462726259869  18.51345170977656  26.175449927393196
 -11.223682221874494  18.886897735702554  25.166255056489103
 -12.733423391548534  18.484206375446572  26.57813486093492
 -1.1350682493897888  7.521797695198722  0.0791115294136539
 -1.00526256683087  6.758084820309257  0.4183251668685456
 0.3609810771601104  7.188838216531824  1.3137454141063816
 -0.5156427813123543  5.853353034677074  1.5229914248521823
 -1.8574764236342196  17.397680550241375  4.277021997430114
 -1.2758762236117407  16.828906866391197  6.637273434862425
 -0.162109661538416  15.436705337504247  5.831662843154953
 -1.1052866030598325  15.202634370168898  4.77272015687595
 1.6205599967436173  15.215872714359797  4.087581297502208
 2.8318012824705643  13.740324857791975  4.705256520012952
 2.1584030990018035  15.632000210742987  5.185777520508216
 4.306162076791249  14.290594308659047  5.029627374963674
 0.3353539287342406  24.620960732641187  12.104948320039163
 0.7403708284775496  25.744812748953436  11.511022091622504
 1.1041562910175489  24.35785762762433  10.725243244655283
 1.9590410033361625  25.747587226711392  12.287191762749607
 -3.335264510408936  3.1105394502336208  -4.54652037866366
 -3.920050068606325  1.2235135038461211  -3.8315270324706048
 -2.320176702779553  1.1486847700726606  -4.358754353347046
 -2.6267201675433665  1.1061910766753862  -4.351427106696755
 1.4134326589770565  -5.84196257605931  11.369221278913306
 0.7896126994533041  -7.965521199252025  12.025728430527607
 1.259879101311979  -6.684452720025483  10.855682180558087
 2.3152699842023847  -7.427195638067171  11.604309241012691
 2.7286283601029977  -1.315103754285986  4.648308902465173
 3.5453378633774117  -1.8558077924985643  4.5209897548486335
 3.487669013403804  -1.368830211623099  2.9162017763005625
 3.5387737466380207  -1.8669541140641153  4.018557786523536
 -2.718153068178444  5.807436909495074  16.59177886452119
 -2.1675123438707367  6.803347637333663  17.70754738723999
 -2.704496990780028  6.4838341200032925  16.676790064769612
 -1.400833580828289  6.603156666387076  17.85493661351136
 12.796360571219507  13.291444270659827  1.2466343242916051
 12.396363495551173  12.75986856467578  1.7928817125968963
 13.173484096170784  12.960658323783155  1.61588495075408
 13.873227270834631  12.456592730791035  2.094716319572432
 7.817742124595136  -2.002434212127465  14.34729394508708
 7.722105736185657  -1.4564051177720865  15.366249095002832
 9.037233685921471  -1.6362345192648924  14.560836011041989
 6.102590732822466  -1.8268253012071405  14.070705998791151
 2.423987261888389  6.766123671990382  5.756449465933303
 1.4279506963198054  4.5916496448579815  6.026518375757112
 2.1496310087532478  6.648685052755349  5.3695765344572495
 2.867094151115537  5.51535690600943  7.359237138562662
 1.7327835080314704  12.566970357451476  5.4579154262209535
 1.42223698113483  12.4159618005739  6.3255374502727975
 -1.2610635791916711  11.900272687467123  26.0338503077026
 -2.6242658595466626  11.721404966245183  26.80023437986645
 16.268270480255804  1.3215238530722484  -7.059072348964348
 16.851726151689874  0.9342604983388796  -6.443059797716325
 16.509878102112058  0.7140925242686844  -6.487768378659503
 16.342785259633015  1.293259094216241  -7.103672254065809
 10.71189415233288  18.344457039322247  -3.239718211698456
 12.634393659978855  19.217112171876945  -3.362460792649716
 8.986947820891313  17.856300785473508  15.291813161240508
 9.714635079168387  18.31838842580172  15.99889119792772
 -5.308805563167052  2.9867604572467084  20.34120398741161
 -6.210100697924123  3.1840275838762686  19.805206737466207
 -5.970292952214001  2.8921901162230466  19.39300554589573
 -3.79495874946812  2.957467089717456  20.23695192666252
 3.9193072025134414  18.81662102453804  15.704684371020951
 2.8352030823286767  18.610357079481886  16.352395005441835
 3.969110176645725  18.597040964870697  16.54638553114216
 4.665639551777198  18.002413441090546  17.41013994205668
 13.002130012908898  17.396894235570155  0.2202448887856023
 12.856847841189976  16.337924118049997  1.9431613058165735
 13.115038535652408  15.817420020666312  0.676628896566412
 13.62202073112262  13.664802537597296  0.5872566003737567
 2.265473074686547  18.613185501296204  -2.723896128742634
 2.9139675196135975  18.628928479237835  -0.6787692122798239
 2.786445391772037  19.055012750615607  -1.630839030240829
 3.3328044631391203  19.316859314030992  -2.439687659674103
 -4.379334929858153  8.75207613331176  16.55890614934241
 -3.8293788777884616  8.752684285986403  17.66588395932081
 -3.147102968986736  8.133788661173824  17.34724221297754
 -3.655816014601869  7.17800834930496  17.032374545574342
 -1.8416133473171183  9.102604546494904  15.717374372382428
 -2.868151551570263  9.420837286138749  15.954096129343583
 -2.414435562373241  8.732154290401631  16.476604691458437
 -2.7467377567637463  8.389058880652945  16.645622352024596
 15.391905977619318  -8.452026232143462  -1.524071341090436
 14.788647692999072  -9.401033618676628  -1.7045427890989382
 14.639681343941907  -9.512046787088131  -0.8943724355919596
 16.544096354159286  -10.111345734203248  0.3314454338821395
 6.912422846718335  7.568614082402205  0.8774483989764992
 7.968673661673858  6.5491734726950455  1.0977810699890265
 8.586635685272686  7.496850757786031  0.6000705755597275
 8.527456467733789  5.9662374958857995  0.2362504734753159
 9.13536616015013  0.4061035775907389  1.667806485603716
 8.522201963113801  0.0168160930230904  2.746983859264432
 9.560435550681657  0.7741053575917358  1.2460440876612502
 9.344664474805754  -0.735800421934077  1.463881828106139
 1.851404072654012  6.4598205982223575  18.03507453133101
 2.685101411539605  5.54213808068327  19.80420073386061
 3.9177952667127194  6.1251831695745445  18.70946581140721
 1.5550059086483945  4.632643102068487  19.34224078344863
 11.690764733241892  -3.9733078345347215  2.048104485643329
 11.217248620064597  -2.829911364085935  1.9828861623667988
 11.551802480612446  15.982790351606958  1.0132592130064193
 11.748315777661835  -4.6748090268096405  2.0135151529019346
 7.5465838419375375  16.12805454829383  14.575728989287635
 8.530661507829233  -4.034264293619049  15.595324045920218
 9.056946414695192  15.858919931177004  15.674283087569094
 8.082146471588326  -3.973694172417396  15.954161624663927
 -1.10449940155603  15.018709030698508  13.445751717462404
 -0.2647015727392006  13.637860603914959  13.853260351445776
 -0.5401847792292127  14.24821329699071  12.133280752996127
 -0.3664277374365952  14.30068262946166  14.108870902377111
 13.126589812441708  0.9103010185678944  9.40499696825543
 13.017091506764196  0.6055637891900956  9.884832732679603
 13.938568739616109  0.4711097923199414  8.54568881280623
 13.410073249658195  -0.1638249387328958  8.99962888246428
 9.088326337093369  14.37472737665368  -8.31091933318712
 7.88344304033637  14.04345943548214  -7.2722601844180765
 8.072978283715374  15.425660198289371  -9.105204665609513
 9.704607847349116  14.903314576708283  -8.553800898013572
 12.560520157675152  10.60470062883062  8.673191463471653
 12.22930023656537  9.984868248380268  9.21272687731152
 13.820214197434982  9.635509908420625  9.118025019776017
 12.746966206286425  10.092285670687032  9.688597477901522
 15.585203442849743  4.928248389097364  5.6455153773211055
 16.3232532240558  5.517807500581744  7.032688860438999
 15.73192738219924  4.484184995561291  6.2553565113487295
 16.942796564260522  4.271869677253319  6.8717699993799455
 16.868086725965625  4.957863869589422  12.645264089812525
 16.01315574373542  4.91082283029229  12.4925783021751
 17.074898451254093  3.18839872660031  11.29378387602687
 16.625875196100992  2.9007918954394274  12.086652929224297
 2.0875096488574982  7.111765378198111  9.137574132654798
 2.0523032726053625  7.085129074948004  9.209119213981266
 3.1414555723244115  26.247625770022456  8.347133731210926
 2.8810798187076223  5.806668192825086  8.942327083845694
 10.798391107845951  23.605655664761265  13.291809359093037
 11.779587823575863  23.56642656338783  14.111338972633774
 11.733269816814644  23.17013500774836  13.445136001148907
 11.836667828260993  22.831697400428684  13.750180690441956
 4.648357444652482  22.28244182509875  7.483005685410839
 4.231721518860227  23.46708422057021  8.01737192187782
 3.8923823006813096  22.66715474319212  7.585584595867629
 4.960290430009168  22.75525087084144  8.693638555405775
 10.224852176103848  7.890895234919536  11.353064993326399
 9.725638774329886  6.520697302815496  13.121247718174953
 9.731609381898815  7.607520265317556  13.621039923801582
 10.57788675381974  7.330175619179246  13.601167093402667
 16.48957572092264  -1.8881015771369032  -7.195128575986068
 16.55504412495291  -0.7448011293090705  -7.059748344949092
 17.130888395946666  -1.4978137458788034  -8.014171446035341
 16.749090706405052  -0.5880021942576146  -8.780080850450995
 21.355231800367186  -8.649807510832012  -1.5745045281205918
 22.15840557939976  -7.352709026591474  -1.8864965574644712
 21.89881251773716  -9.223955404221432  -2.6049879907283584
 22.75581457950181  -8.297180653592239  -2.7881552975184185
 10.911065515495778  -1.3269985469006853  13.015194378757927
 10.761550146887839  -1.7845060915699125  13.427692972407627
 10.552509169498812  -1.3078558589929077  13.370944229033157
 10.877314432230476  -1.266498251012126  13.632066274487231
 23.002048008949004  7.594170776153622  11.001260276491204
 24.022919320259312  6.731420115053614  11.586209309667064
 22.60593174501556  7.535776982963799  11.030461951981907
 3.8980758807541167  5.028691945523612  12.417364763916927
 16.02201497212314  2.19426075086659  8.206316742341922
 17.360643793317237  -0.1987553548595686  8.61146259537959
 18.04531313030668  0.50586695007296  8.136411666487877
 16.89607082560026  -0.7345457912851323  8.463339722660885
 20.59697958386304  11.044639516274035  2.182177561643405
 22.200939543084864  8.691796242718905  1.263848262579212
 21.40773718309216  9.250131292156372  -0.0111411707242057
 22.778276345924244  8.64391359911523  2.446205826688693
 22.079380833728656  -2.430190776168491  13.150297154190532
 3.365613266843196  -3.7708060972941353  13.054354962003444
 23.92826857662885  -3.7953792322188313  12.822356500998088
 24.09779176013219  -5.0454661908270735  13.347064450691416
 15.147846081281852  -0.5792890744116939  18.455691572548535
 14.02998918723885  1.4131465329769872  18.23009828696359
 15.01913998419394  -1.415039975463216  18.454403905519683
 13.913224139186488  0.2374932285568274  19.890089172879932
 17.72062448338577  19.344804886774956  7.073790192370145
 18.586382515966264  18.637435180316473  8.45276434049853
 18.09137173591182  17.803425077523983  8.623100439962238
 19.11012094826629  17.29356343476924  8.609993300717438
 10.39322208593034  4.236052655453968  15.181729332813951
 11.322280781494815  3.045264265179185  13.89299087178994
 10.373852743818103  3.2159592183019634  14.550021782010369
 11.603133751448798  3.2001360161529444  14.056458158432056
 10.736110036561339  13.286174134481813  7.1952449417352256
 10.085010078638192  12.211253636910502  6.786674160216924
 10.011195836456633  13.050565265545348  6.9725126365392365
 11.038648354407668  12.3182820244353  7.834516411508004
 16.00609285554102  3.8947384975739343  23.425195413080544
 15.131091401403769  3.819571526154132  23.44223237587611
 15.526061846278147  4.765149020850311  21.737011721294433
 16.250230841676593  2.780343519857285  23.128827569419695
 11.412521548818667  8.955660848346792  -4.032598333714628
 13.566799516764394  9.060074318878977  -2.4928739890466285
 12.248167931999212  9.332057186268218  -2.940286672908276
 13.750149345019183  9.28542970036228  -3.319307530758137
 9.8090970214304  11.101594582058487  1.0147239970767945
 11.043633368183318  10.900698866645218  1.6840447168508268
 10.863920283334071  11.189689796156983  1.57763786217851
 11.57879928002442  11.3495456346843  0.4721942274791431
 19.70060215869916  19.840195457358323  2.853473177351756
 18.856229574959485  19.552894098952898  3.2932504147005406
 19.762922602260463  19.026485607552928  4.542239229332746
 19.449946730070568  18.08922815393676  3.935449834286288
 7.74394191257988  14.590698893099448  13.476492028018251
 8.441786536459315  13.317830661667397  13.418370311247209
 8.563217901229214  14.807285228990333  11.659165948957376
 9.724146510578525  14.10720841226514  13.027210630666763
 0.0635598585434524  0.558751247711798  -7.948660701216106
 -1.777749862009142  -0.5197864269206722  -7.720775099592941
 -1.70715364663848  -0.382711961042194  -6.764190652295154
 -0.5859766990600731  -0.0377403329938332  -8.335533490500922
 -0.96945861425541  -1.8567653882420083  -7.71325097175728
 -1.266744154459654  0.3543124826139028  -7.9281793716404
 -0.648566504572454  -0.1250849551851669  -5.489248208637074
 -2.9520150488728563  -1.4270927433586  -5.503098549943995
 -8.677095674489262  7.989742116592176  5.749503686578067
 -7.632141952332375  7.351597380496936  7.035200072976764
 -7.556894913773434  9.19170760790598  7.8139646694208675
 -7.23251727794381  8.930833164186755  8.802373544017005
 -7.4375199313634015  8.861895721527814  6.364218530488766
 -8.415623482099404  8.33378869265063  8.45161017878333
 -8.479088387801966  8.86099159583232  6.3688778494687055
 -8.811752209201027  9.361223088198237  8.186970603611929
 7.160781635539086  -4.842537659086234  0.442010956325678
 5.050554665136535  -6.562555183533806  21.17858506572047
 7.594137910772061  -5.782404808150483  1.9317526487261103
 5.618812685799998  -4.995751618795144  2.5690653314808927
 6.251001820750977  -4.12790922672176  0.7867089808386183
 6.213014963661347  -5.614855552645691  1.3907869524245695
 2.7235177677346734  -4.3309478382040725  20.250863473848177
 4.895589169018039  -5.972889239563713  1.3593292187050403
 1.4351754681895987  -8.048524952097017  9.341612568648712
 2.376069059868118  9.961599065831317  10.79802989242824
 0.9415529224736838  10.649895731629847  12.904428904405412
 0.264855748032176  -9.357233746854499  11.014819948965282
 -1.0849695347907746  -9.88323386974616  11.258156416524711
 0.4850313457668696  -9.627915568882559  11.838097904063247
 -2.3175843577308535  -7.11217860907646  12.272798956109405
 -2.2813925249853844  9.20760597005144  13.645640631190108
 0.8004950032198893  14.586940904887731  3.454360420133907
 2.532621875238233  -4.145185151597284  3.6813994081431214
 2.01259351653864  14.586237249059135  1.6946993572993536
 1.5261636969930588  -3.165630570672728  2.545031323311263
 2.0581998675932867  -4.042324752384295  0.5679965889821648
 2.550924130786867  16.082258231504333  2.035792132204799
 0.966433587007409  -3.6883966583183536  3.600987214718364
 2.3643190969525003  -3.7033024655388047  3.364039447340041
 -5.146582221126097  9.912973361445967  12.340684011819553
 -5.086247781159222  12.506179966739419  14.287329514928349
 -5.827517656583592  9.850844151621985  15.29863500651798
 -3.883229709449748  10.549309468294608  13.839447775001036
 -4.1319153725916  9.683660733727985  14.130313952387503
 -3.749078860183491  9.593058268423983  12.472051929149252
 -5.573438330125646  11.896368310606007  13.914104727985512
 -2.5108958065213174  12.77393280136464  14.684960401018184
 -5.432691331994364  14.5884835298701  4.753488460622734
 -6.596093030019582  -2.086612251263949  5.239932807853728
 -4.888007358260203  -3.473286397478017  4.12346084223244
 -5.723513693236296  -3.9956253205533288  2.4731589840052375
 -7.0297832538134095  -3.510408596739029  2.417539198683823
 -4.642963773927347  -3.8658235189636025  1.6381948509692243
 -4.080143683824256  15.818964019561134  1.3955258030821245
 -8.256025603747947  -0.378689405222957  21.304402864515367
 4.105736706612335  12.501180254244904  12.93248910621542
 4.626919923507352  11.58010354798748  12.092435376569153
 2.918343189390084  11.52549516226362  14.081246515845672
 4.146748216812801  11.329356102141872  13.912519639439841
 2.5719290965433426  11.10619922444016  14.325069603395413
 1.8704788006350304  12.44607929007282  13.292170649249828
 3.791161697197487  10.855642697358856  12.135914061410219
 2.5179108774470262  13.821892055057216  14.305023325719931
 9.981543542846365  2.4578200842467495  -3.561005898419031
 9.187313872330153  3.3948807493045714  -3.5049228258697247
 10.535708027857714  1.4749881799395863  -4.8356567793695
 9.598319585105882  4.867930151935644  -3.623789363314692
 9.593697668893464  2.9230446525426697  -4.475575355724204
 9.583713565373106  3.271070139220249  -4.968660437315068
 8.65312139963854  3.146917678741086  -2.7380301041372945
 10.477172019234468  3.4950044677441685  -3.2091291330539558
 8.042764602466791  8.555760554669174  -0.6524428305576491
 7.676807452089032  8.028806195063273  1.8413720132985387
 6.529622272296368  6.1315237341302  0.5217698582423944
 6.104365993041776  6.13170909532532  1.1076961681845257
 6.813836538255302  6.681116328173848  -0.4681277920018916
 6.595394299382666  7.710640428631239  0.1887993590567127
 5.778645542008884  8.213541612518261  1.845938244429144
 5.461522235580078  6.7829529194426605  0.5620288101733069
 2.6773599390341607  10.034328545207485  18.81815636947555
 1.8220391150389248  11.32840832467259  20.78862002378776
 5.763199093925301  10.667157830438745  1.0555449152532823
 2.6707867964903005  10.012915240991802  20.007519815850205
 4.929210167312641  9.712302107915814  0.5374493927030137
 1.5335178564271106  11.6830641855028  18.51960558169897
 2.101391781354164  9.032819663590516  19.242546261270864
 1.2749976433380528  11.501572868038064  19.182593483102377
 -11.615234268833513  17.93950533922963  24.930698253296995
 -11.474037613864567  18.04517745803856  26.346882678249315
 -9.842521409348429  18.098763874904012  6.854879246400731
 -12.550891689584263  19.14382590384892  25.517800385070288
 -13.041257690620023  19.25582460973773  25.97277311191766
 -8.473540514640197  18.713210522842875  5.213420159813417
 -14.321164013382967  19.01699757033061  25.793920982067586
 -9.767446791959944  18.69134941765048  6.077378249940768
 0.0969963561729438  5.758359346354393  0.1698191454639299
 -0.8698937391208866  6.692356871357276  0.8430348394547579
 0.2737626471512262  7.042673771887939  0.5989352067215145
 -2.1380086332502666  8.064917578958486  0.7510616360516889
 -1.4217361436867502  8.768597046837975  -0.3899114411602463
 -0.5280155763897492  6.823329834590581  -0.0595945795804162
 -1.602336856096468  8.269465026092742  0.7747906767854216
 -0.9958521271315636  7.229678700839671  1.1480121606115403
 0.3811865965408173  16.765482326403312  2.187654825932259
 2.1789643257735087  12.937473061360151  3.3336206355451927
 -0.2518612863219691  16.384264560704622  7.110395300255689
 0.0906121393498963  16.46673833053977  7.610076628501635
 0.1259866225628229  16.665944551276567  5.177707191930902
 0.8713927449514081  17.097758701538183  5.540270570476313
 -0.6847057182567426  16.981720422205896  6.802729308864915
 -2.3065772206847024  15.262124926515485  6.930021818026147
 1.9122375083865732  14.24574214775482  4.420572920337378
 4.77270508305824  13.899908936032004  3.9315777844110738
 3.8216011536987367  14.195670580962796  5.956493439680489
 3.844319373122664  14.62460638013336  4.756126062210313
 3.0048811045525805  14.1983662935299  5.249249891000552
 2.1622572933897324  14.960053653080507  4.28439831249552
 2.8952372820885044  14.328351888828497  5.150112505199489
 1.350454260314806  14.048134276037814  5.318642284894528
 3.4668950341416083  5.471594562610012  9.823151434603892
 3.127959618105476  24.331384955241525  10.394858316993671
 1.0199274851677993  24.817501552610693  10.788863388814022
 0.3478093929469162  25.424672976136478  12.245034992291467
 2.525558263976176  24.56147368387652  10.966177259448251
 1.4508286606929843  25.48458870973316  11.177010305832043
 -0.6154896222161312  26.7223328929506  12.202087408893375
 -0.4209949843153304  24.658408328382844  14.00390667335427
 -2.4727702467848807  0.6078761935450328  -5.403276079932043
 15.964772732683532  3.0235287585350585  -3.263885940425434
 -2.47564598432721  0.8644737610261152  -3.767430378764877
 -3.557818182884029  2.8387669801510795  -4.595516759299397
 -3.001281663608768  1.6862527530377154  -4.82539275196475
 -3.430852169039952  1.055871956333032  -4.7901998427941885
 -0.8705353737824355  0.7759211544765321  -5.562782014247483
 -2.4373462174143645  2.553792776572093  -4.995355447845819
 1.92126476724835  -6.655094875684964  11.314701923984469
 1.2889815951356702  -6.43089000669585  12.91754469283884
 2.263350551653839  -7.074991240455317  11.336181503804616
 0.473681569753956  -8.204210645393774  11.05461149010631
 0.3066044555729928  -9.742353410896442  11.621533511488693
 1.3247366024615994  -7.14374067620202  10.611203521932268
 0.3259783515954942  -6.897525424513831  11.01615958122264
 1.4587310302355982  -6.842223368211248  11.523885635331244
 3.6629841668624823  -2.096301345544369  2.0752000714085828
 3.107106690427252  -0.0870700457559536  4.9455471472304495
 3.628753488048997  -2.2905575721425397  4.585073602122316
 3.5210940751569986  -0.7222307435499985  3.7685234822209335
 3.817003749699564  -0.0250120673800661  3.959073284232472
 3.816832588850161  -2.4548958610805816  4.301712804601785
 3.7071194638549896  -2.983170609215203  3.6541350587260446
 3.693844977603128  -0.7853043453431751  4.514027103164256
 -0.7313429423300479  5.839738096972585  16.842346170949867
 -1.273336711006393  5.929454273162544  16.891602992547043
 -1.6845002234002786  5.986621166136184  18.11929368512744
 -1.7463641010813222  6.403535051686533  18.909871193882328
 -0.9057967963214986  5.258304196995025  16.48061141031709
 -1.97768674316092  5.90252089112525  16.935776954009622
 -2.4336549297662686  5.240569683723184  16.55927882450137
 -2.2220576514856947  5.954560560639218  17.520170338989406
 13.327289529929953  12.864579457906524  1.8363360739064556
 13.69404958207947  12.27168272963844  3.0996609399853847
 13.819226113193276  13.301917224849827  2.580753096405161
 11.2705149759783  13.917391088799366  2.30523343033978
 13.948184968074152  12.31637756985732  3.405243122083184
 11.356665429921936  13.949607864012343  1.5651018617592931
 10.242308704511716  14.482029373144758  1.634657787408185
 12.754379019555785  13.744142225781989  1.48883001327903
 7.868155106799419  -3.2155445171759744  12.87781941900338
 10.71037829564743  -3.514044884694174  15.026935335198337
 6.664345711457935  -3.4079929995639207  16.228396170023217
 7.446031098914188  -2.5364705861463177  14.67606543094272
 9.482926097028301  -2.6690637705540743  13.743079256832935
 8.298561400447397  -2.8950821284568  13.27077532182559
 8.01154386950011  -3.0080571616946443  14.362035151800635
 7.668215467744176  -0.7890663826706863  14.075016092873412
 1.77352454340485  5.3910337592389  5.9747475599743405
 2.6926644830466935  3.8351509024081056  5.435753992862711
 3.416485289184286  4.137541080468995  6.361346327370075
 1.4209286346231096  6.683670053504959  4.341106600443611
 2.578003132818515  6.027697051822078  4.84675942872892
 0.9016344909527394  3.826252558587036  3.454053049522832
 0.3525086630070917  7.3731732876617855  7.254039862154259
 0.5022686677208128  5.524417745562788  5.808756310573124
 1.9209450419470824  11.89431503145003  6.380275914451648
 -1.6631991715047816  12.6438211008582  26.610294594146342
 1.8205656426076555  11.566668181219953  6.594363473415849
 -1.692329485094493  12.552208610936644  24.99335473057788
 1.6272036857964447  12.629885566205692  6.714170426053324
 0.3763269426345186  13.509255977504495  26.108626983048424
 -1.3742064948122037  10.762845642487884  25.594076622384595
 -0.7172597237124623  11.682685084014071  26.07676595653272
 16.441709113577904  0.7199664982061424  -6.802976953914124
 -2.780739607200892  0.8658466382118934  -5.605825310949527
 -3.309913101862316  0.9696591459159124  -6.578526235882313
 -2.9363275894970062  1.5310889005830344  -6.864637339686418
 15.688318693543785  0.7752105611726439  -5.384286315912031
 -2.761393164266135  21.112753938903296  -6.7866851591162
 -2.958790772571561  20.983290591202724  -6.041494535303628
 16.573185295940036  1.0067529286733912  -6.117161317222552
 11.71975080841562  17.695046457303356  -4.557062125727827
 13.333983317329547  18.230767924415737  -1.9613077916143504
 12.100243118603665  16.835079063590804  -3.8772323936035766
 10.542533656460304  18.276079396990774  -2.5950418402977435
 11.663784038819596  19.150925155158205  -4.203399387107784
 12.116143541313017  18.198781985712795  -2.9394207623734014
 9.857859555362664  18.73146223513958  -2.5114082510556788
 11.668883712045476  18.79889020539616  -2.648613625958929
 -4.919529036804  4.480089118251884  19.875798031490973
 -4.123407761741071  2.127335128500631  19.605385135729165
 -4.478070525087693  3.9685229057691447  20.879305832473907
 -5.187873697644217  3.469104370868232  19.651366547916087
 -6.708439713313688  3.257248595897922  20.85961826458326
 -5.174479916456598  3.812208735454391  19.314723875576064
 -6.40769526625138  4.370899496397765  20.68332311547276
 -2.2201097466505537  3.481645247402477  0.9995131977520691
 6.086357201442771  19.10861680635636  14.44912235598334
 5.262304823483104  16.56323680007292  14.787792429763003
 3.4637162285085017  17.751846947619676  17.917114857566553
 4.248082367162665  18.827044328192027  16.85528575699142
 3.4214679978243048  17.5935296643243  17.495761841759446
 3.0611353231590623  18.369853772833448  15.727313712907312
 2.3284409964651127  18.168355441047417  16.113100438944635
 1.8393963073044783  17.566287175343994  15.900135517028202
 12.515768349611424  14.733477843397203  2.2780856005432994
 11.82304044858622  17.043395110340768  2.3258488482701
 11.555121015307297  16.192736746140444  -0.3569419473932844
 14.885251472625663  15.22568741112926  1.9093018313422907
 13.2289565227402  14.1282988309944  1.2244624966085105
 13.32457653956694  17.87182153339652  1.3022052108851336
 15.483730669990155  13.626730224999744  -1.4666144358013424
 12.737625345142908  15.908369935265451  0.7371000119589034
 2.149661367106776  18.111323997495074  -0.8065715985164728
 3.2819721935777895  19.95671884815099  -0.0545383309809129
 2.4903128994072548  20.092336112508477  -0.475596026386401
 3.401461906777647  18.3506526640142  -0.4707700249286875
 2.5292492474784893  17.33729619647824  -1.6808198052916312
 2.9675897140957685  20.5005372711774  -1.4163281215174663
 2.1659844849663523  17.65037651147593  -2.866453921448601
 3.4867803078015056  20.41872270161613  -0.9909609054633952
 -3.8593310149462168  6.495037808268066  17.16659853533521
 -2.693182108744293  9.152844124083735  16.686851566694955
 -3.4970614728205134  8.641690227446608  17.51080133347144
 -4.0241660164421615  7.900409638955175  16.155081577130183
 -3.213242358561275  7.386857007473066  17.060637672067834
 -3.1183240437357767  8.888847674333574  16.34969476413001
 -1.9828548937784207  6.389212876251779  14.105591869699568
 -3.9303230361854418  9.730667764708244  15.175237242014866