generated by phonopy 
1.0
     20.51030558015857        0.0        0.0947411230257034   
     0.0        20.860917147463063        0.0   
     -3.6106018498087886        0.0        20.858517349609922   
Zr O 
256   512   
Cartesian
 -438553.80855691695  -543280.1570566504  286518.73247570207
 -438553.671591944  -543279.3267175994  286519.99236833915
 -438552.4253739102  -543280.9669509121  286518.48628210207
 -438553.2039323958  -543279.7152609768  286519.35185900383
 22257.10144415168  -650241.3606646878  -26906.01525612041
 22257.04413241384  -650243.0055896948  -26905.800726940302
 22258.04251456885  -650241.36534403  -26906.07351934072
 22256.97276405285  -650243.326194487  -26905.606374732888
 676737.4450210299  440318.2365866  -1065226.153565556
 676737.3888753173  440316.44367526815  -1065225.6138304048
 676738.2783565173  440317.05514217593  -1065223.672337983
 676736.9845212774  440315.60200564977  -1065223.2785678827
 463511.2382516823  -178955.23868022897  178243.2662837978
 463508.8697193315  -178954.8631244169  178242.75283586068
 463509.571465863  -178956.17992234929  178243.95688892683
 463510.1420496272  -178955.4577892833  178244.10510047583
 -512571.4562084836  129374.96537315416  236796.2457425185
 -512572.00775864033  129374.2109303694  236797.78541015953
 -512571.6212766557  129374.57575351062  236798.62183244704
 -512572.5869720848  129373.62711372132  236798.6442055317
 -465624.63828789274  -712231.6612378139  244633.56677149824
 -465624.71355332155  -712233.0207340133  244633.36209637148
 -465623.5678335576  -712232.6237108539  244632.89326500992
 -465624.02542043285  -712233.3655616051  244632.89557857616
 -1000737.7075325532  262403.67673935345  382338.1776271375
 -1000736.3837367547  262404.3762093886  382339.6583607989
 -1000736.9344464584  262403.95958687033  382339.5037896408
 -1000736.6019351964  262403.55980060506  382339.15776219027
 -644222.105795403  227885.6283027903  -181982.79531218924
 -644222.3998892521  227883.0055009008  -181982.28242809503
 -644220.8042377592  227884.29867552317  -181982.58497168153
 -644221.1567809329  227882.15930250467  -181982.52729747965
 254676.2904832005  -178695.64613826034  759242.6125671684
 254675.0525932632  -178695.49425948932  759242.8468053679
 254676.5020242617  -178696.73417035487  759243.1331592426
 254674.41403778968  -178696.8731013991  759244.1790989827
 1234854.9721127949  -297377.7776646666  47111.07438186445
 1234853.5298021012  -297378.3059625217  47110.46481036896
 1234854.1108685513  -297379.5377158469  47110.33734544422
 1234856.337884521  -297379.4763627035  47111.78292521713
 94982.23269508129  143826.77337296988  -562021.5634032389
 94981.98704298612  143826.3484442559  -562020.4995210473
 94983.17541194307  143827.0853397929  -562020.0780368963
 94981.98689573367  143826.56362736592  -562020.5287724934
 -175315.91053824083  -1131638.308146908  566981.0365952114
 -175315.27656984987  -1131638.7392121747  566981.1178964704
 -175316.25547516337  -1131639.2842956805  566981.2894937468
 -175314.74573398166  -1131639.7099689168  566980.877616211
 303668.34158830484  -132378.55737137084  724812.0578386035
 303668.21178263234  -132378.62202323083  724812.7186271005
 303667.7364141792  -132379.22441410672  724810.9856092589
 303668.61303804966  -132378.7172935217  724811.7763655168
 443103.3631670795  -86744.7465355767  690913.9234607341
 443102.7815668896  -86745.00612662772  690912.5632114313
 443102.5586755183  -86743.78556257846  690912.5312244286
 443103.5018524718  -86744.37985620803  690914.5901693832
 63947.02369728199  -740481.9862949383  -1075240.098833374
 63945.812456006206  -740481.3391118166  -1075239.7165064618
 63947.37672938056  -740483.4024246493  -1075241.0346250564
 63945.2289704148  -740482.8893833442  -1075239.8784726427
 379221.31975808344  448831.2170282076  -741218.6323929708
 379220.91474119376  448829.2648114564  -741217.0384646078
 379221.44183092215  448830.48012909805  -741217.0902833552
 379220.58694622177  448828.26203490223  -741217.652229605
 -590391.8031982287  -470185.407940569  -153107.09600828902
 -590391.2184126605  -470184.3492793575  -153106.81099950068
 -590391.9274108353  -470184.44608810346  -153107.12136977416
 -590391.6208673585  -470185.23195900687  -153106.1286947523
 435899.49750024633  24477.61196210147  254080.98117736733
 435900.1213202159  24478.907155989786  254081.32467235025
 435900.5419290049  24477.454450030906  254081.65712100588
 435899.48653813393  24477.368828352068  254081.90849621396
 612390.2900871427  -506040.8988738536  -73933.56223050067
 612389.4733776496  -506041.1865345502  -73932.4349092185
 612390.4219216905  -506041.84514961066  -73931.66771883433
 612390.3708169692  -506042.1753903051  -73931.77007257604
 -271709.6966322916  -302820.96656393213  -716549.4021871727
 -271710.24727300595  -302822.79083939485  -716549.5179535608
 -271708.8194131682  -302822.6429633572  -716549.3247938327
 -271710.123076566  -302823.5906505004  -716549.5029381131
 -126409.65510695164  -996068.0187572122  -143224.8926270795
 -126409.25510986596  -996068.315546241  -143224.43887233327
 -126409.14135527571  -996068.6879734796  -143225.09947316584
 -126409.84109843837  -996069.0122724836  -143224.57830226613
 97478.53578627933  321501.94123789034  -379565.2424397888
 97478.63142267775  321500.56684406113  -379565.2613928042
 97478.20716991888  321500.57503598294  -379565.2935773146
 97481.14181288399  321499.93726216804  -379563.8034450338
 -77408.97130217863  787234.0089142666  -44409.55858387076
 -77407.97526560306  787235.3550235587  -44408.82865064604
 -77407.8060707246  787233.1263506714  -44409.0093063991
 -77408.52353385498  787233.4313142211  -44409.99896473468
 694393.7207575456  -438058.62150580937  -254407.84209812744
 694394.0313040825  -438059.29886198736  -254407.70971801697
 694393.9948779837  -438058.9548103539  -254407.3971111191
 694395.3580802762  -438059.6043072296  -254407.16349292273
 -499863.373936347  431487.8029398242  -81982.03742570813
 -499863.9573920084  431487.3618384441  -81981.65343612483
 -499862.724668768  431487.41036893846  -81982.44632513825
 -499862.55757591344  431486.00283777167  -81980.8304189943
 -312634.1114938677  -214049.44020445916  21657.990915600985
 -312636.0339933653  -214051.14122432657  21659.113660316463
 -312635.10627418524  -214049.95205041984  21660.48030611783
 -312635.8339614315  -214051.24250265703  21660.77323034968
 -94800.24298639967  823233.300815429  -113246.53129433843
 -94799.3416912549  823232.2751835673  -113244.99529495394
 -94798.69062380974  823232.3953835553  -113245.42069135672
 -94800.86595800049  823231.501741985  -113245.26463546896
 329149.5479361059  142755.2145217639  870758.7111554925
 329150.6320402361  142754.59242097408  870759.063446993
 329150.3890083326  142754.43409960903  870758.0318588726
 329149.6924789695  142754.20036253592  870758.1681067302
 -425166.39697665855  120341.5787736038  -1118744.8758808395
 -425166.2516944768  120341.80937898647  -1118745.598795122
 -425165.61900998047  120342.1582456042  -1118745.1698603071
 -425166.12599216384  120343.48249849038  -1118744.0804857423
 -369449.081457234  207872.77083309312  986956.2858952697
 -369449.7299516689  207871.92672538027  986955.2407704877
 -369448.71155435016  207871.32900362925  986955.3552427111
 -369449.2579134095  207870.2387924689  986957.164093609
 58909.67817302751  -1036450.2149865632  255392.590971078
 58909.12821698543  -1036451.0439594508  255392.4839954025
 58909.336816267525  -1036450.5967013056  255391.9650395545
 58909.845529325146  -1036450.4692855906  255393.2799094905
 1335328.5903154346  -394476.70121894806  396216.2990993205
 1335329.6168536493  -394477.8478164226  396217.0623796981
 1335330.0540128509  -394477.33077090647  396215.7022735416
 1335330.386315057  -394477.8160400936  396216.5332581496
 91290.80397259048  360111.51801129075  -542769.7586889539
 91291.40723088512  360111.63865394244  -542768.5782153714
 91292.44707242504  360111.5780296312  -542770.2259833192
 91290.54265742688  360111.34896398144  -542770.4517989203
 254085.7485373077  -798498.9800819748  1041561.6699243804
 254084.69228650277  -798498.7890061  1041562.449593844
 254084.96519967  -798499.9083208647  1041562.109706744
 254085.0243788996  -798499.2060721996  1041563.4735291146
 129435.58653781716  -421535.0447168124  -851800.175909226
 129436.19970202415  -421535.4837940628  -851800.2550844651
 129436.05234362753  -421536.41272080713  -851799.5917422882
 129436.26811471536  -421535.73117962433  -851798.8095777598
 44416.55043713268  -540928.1272687643  -223417.09735165563
 44415.71673980379  -540928.0379509815  -223417.8664757236
 44415.374921139504  -540928.7926335501  -223417.60933839556
 44417.737710509566  -540928.1284580795  -223417.24211109904
 -275688.32060889085  -85429.9986840492  258767.27316658729
 -275687.84709276765  -85431.97044525454  258768.3383870451
 -275687.2907714373  -85430.09386730242  258768.4704164001
 -275687.4872847224  -85431.12554966833  258768.47016272868
 -200823.44991400233  660327.6879753724  -155929.65597573225
 -200824.4339916582  660326.1610123321  -155929.67556865435
 -200824.0694013742  660326.957107775  -155930.59212529036
 -200823.09460141908  660325.1004401343  -155929.87200155892
 -347918.99041019374  -146049.95501429465  843428.6454494131
 -347919.8302080125  -146049.40253060276  843429.2379429138
 -347918.66384961526  -146050.18452077548  843430.1203249177
 -347918.837606645  -146051.06535470483  843429.1447370371
 722373.3623363038  -353143.0320462959  -240316.9873578949
 722373.4718346195  -353143.55567380134  -240316.4671915247
 722373.4412325779  -353143.59285728406  -240315.9656451992
 722373.9697280799  -353143.78628714994  -240315.41958300036
 -259220.54234579264  -481586.73289101024  -379927.29201560747
 -259219.33746248588  -481587.229987804  -379927.33067262167
 -259218.6361225384  -481588.7838260464  -379926.3353257348
 -259220.26775209003  -481589.08984502166  -379925.88672723394
 -151383.72468818017  1092686.149669038  -728656.8473917953
 -151383.39346824904  1092685.941136683  -728656.3869250745
 -151384.093507019  1092686.1188575437  -728657.1298208116
 -151383.02025901584  1092684.8337171846  -728656.700391001
 333426.3363495992  -317318.42479289847  534061.2396924844
 333425.59829982795  -317319.84271674487  534060.8525211357
 333427.08050086064  -317318.9807317196  534060.7922558904
 333425.8696316905  -317319.5967809981  534061.175844671
 169017.27308788578  768429.700365631  197569.4777072105
 169018.12801887805  768428.9190419354  197570.6303951326
 169017.95715136133  768430.4698285597  197570.9915919644
 169018.40617462853  768429.9290707939  197571.1987251797
 700285.6993844517  -309090.97649521346  -425237.3408901264
 700285.734590838  -309091.7782236451  -425236.41243307333
 700285.5363137292  -309090.2514406724  -425236.3880451848
 700285.7966894949  -309091.4997648395  -425235.983236269
 -169559.05293754803  217588.9657536474  -501748.5544755622
 -169560.0341342538  217588.1766180139  -501748.3740030412
 -169559.0969410561  217588.4012720899  -501748.5453976641
 -169559.2003390556  217587.91134510035  -501747.8504400848
 183772.95550588207  -67578.448438333  -76145.88271880502
 183773.37214181796  -67580.46144546334  -76145.41708290695
 183774.60235622697  -67579.83315346562  -76145.82289317531
 183773.53444810965  -67580.74961419014  -76145.9309448663
 219479.81689410756  76793.48976870159  -99250.1953291785
 219480.3161075193  76794.03160189881  -99250.96350976879
 219481.20101210265  76792.77314145665  -99252.30089956879
 219480.35473474272  76792.22212150593  -99251.28102446986
 -744032.178981043  245307.32702414648  -544910.8371802351
 -744032.244449437  245305.35535896383  -544909.9725583316
 -744031.9294185172  245305.9367341008  -544909.8557328248
 -744031.5476208156  245304.19855795227  -544908.0898211518
 366150.65175938373  -151585.72091755204  -160830.4229618136
 366149.8485856147  -151587.84638077117  -160829.11096764976
 366150.9990538673  -151586.14677187317  -160829.2300738108
 366150.1420518175  -151587.9019112207  -160828.04690423547
 -736788.716175317  -380812.8013428401  -393928.20096477086
 -736788.5666599382  -380813.1722000304  -393927.61346123
 -736787.4667437699  -380813.82048774255  -393928.39431008097
 -736787.7915490208  -380814.69020994735  -393927.655429858
 -300254.76065694273  588877.1501705099  -481704.34837766713
 -300255.781528244  588877.1845564361  -481703.93332456576
 -300253.47366547794  588876.2085620887  -481704.2151748024
 -300255.27611518186  588877.8872825291  -481704.6968164688
 -110224.50977721918  87521.69781698166  256790.79414571196
 -110225.84840603036  87523.26246835249  256791.3890019934
 -110225.64220017644  87522.38620856794  256791.026455328
 -110224.49295785977  87522.79825671238  256791.6995295404
 2618.4289966895767  -389096.5266298724  -602646.030156258
 2616.8250367403475  -389095.00215133367  -602644.1118248245
 2618.5091142912297  -389095.7321238628  -602643.6744329856
 2617.1385751404205  -389095.9542707666  -602645.1317777145
 -75415.3625299049  -203921.55119869785  460500.69903535617
 -75417.15906790817  -203921.03894811156  460501.7002385599
 -75416.32054244693  -203921.18601245625  460501.1893805496
 -75416.49006561843  -203920.76429009452  460501.66467486834
 457870.0069601004  1207588.834848394  480566.938651333
 457871.1248170045  1207586.0140480516  480568.16424675303
 457871.0265413984  1207588.6705970804  480567.1023435402
 457872.1324572554  1207586.1896992796  480566.6666605414
 -587136.8994444989  770501.4051393601  180148.03578569912
 -587137.7652025215  770501.2841443318  180147.65681368555
 -587136.3793165506  770501.946516955  180146.64887999167
 -587137.3980657511  770501.6280140008  180147.66198939952
 -806354.8663019377  -1089192.5279704456  83257.94822704858
 -806355.7953606232  -1089192.1655467902  83260.23696764412
 -806353.9560573947  -1089192.5078792232  83258.74233913956
 -806355.1853383904  -1089193.3204206177  83260.23590503166
 1505203.5612090735  1098023.8629852827  522229.42489832325
 1505204.2123090415  1098024.1095410453  522230.83347123937
 1505205.1769984746  1098023.0985919368  522229.8100351688
 1505204.1495459687  1098023.0025105812  522229.94803366234
 -921483.0880328702  456726.93947361  -310988.2549046635
 -921482.213031406  456726.1862758465  -310987.27193949174
 -921481.71712666  456725.06906087213  -310986.40431643155
 -921482.4412956432  456726.2255017763  -310986.7961300111
 209663.3834985113  -365020.9392630321  1715285.776727488
 209661.22922055345  -365021.87204123754  1715285.237005278
 209663.43872732916  -365022.31566158455  1715284.8468203675
 209661.936745928  -365023.0973986954  1715286.2258434938
 -183373.66728453367  802958.8049725437  439879.97136229294
 -183374.90182087047  802958.1775035241  439880.3020437077
 -183373.83123259476  802957.7168751151  439879.5708529679
 -183374.54611157943  802956.7286546797  439881.6762988713
 -851165.2736581686  1068572.1244103156  49068.07566436777
 -851164.429285575  1068571.5833469392  49068.63588926495
 -851164.4451034112  1068571.9381179512  49066.549302855965
 -851164.132127527  1068572.0470108076  49068.15609451953
 -163484.42940589724  1097970.4061676553  -513285.5516569944
 -163485.12725051114  1097970.850671152  -513284.49353314313
 -163484.357806685  1097969.1895791052  -513283.5719263752
 -163485.51873528239  1097969.061291325  -513283.93996878824
 -438553.72469963727  -543281.1003327895  286519.44605693326
 -438551.88338993466  -543279.6691726479  286520.2181734442
 -438552.9153810052  -543279.966775924  286519.90179959213
 -438553.8298972996  -543279.3117454294  286520.552463233
 -438553.65307608567  -543278.5242873656  286519.85085768905
 -438553.1491298362  -543279.7353631139  286519.1451069536
 -438554.72870246327  -543279.4164944862  286517.3463862777
 -438552.425253941  -543277.761864299  286518.3602387096
 22258.18053730116  -650242.4535387015  -26904.72842283624
 22257.135583561  -650241.4627714985  -26905.014117110102
 22256.09894166724  -650243.463410536  -26905.15267111134
 22255.981224684663  -650242.2025339697  -26907.061759183325
 22255.979566636826  -650243.1651635185  -26904.702927194936
 22257.164330896823  -650241.6370543671  -26907.710997978615
 22256.266400825323  -650242.3247860803  -26904.988055162095
 22256.59906462472  -650242.4723951736  -26905.80614582571
 676738.2684002653  440316.5444590008  -1065224.8622222608
 676736.768025368  440318.61709899217  -1065223.740276908
 676736.8736491168  440317.6764198067  -1065224.7117512452
 676739.055634995  440317.88976873993  -1065226.2697431254
 676738.216785159  440315.99035935634  -1065224.5667098
 676738.4614327252  440318.47730780486  -1065226.0914669067
 676737.378933094  440317.0328712804  -1065223.4528155916
 676738.8174635207  440319.02743508073  -1065224.4197965956
 463509.7799778621  -178957.43599329476  178245.60534450426
 463508.8390842524  -178954.23257769825  178245.14892929303
 463509.3122055347  -178955.08140317403  178243.68274087628
 463510.1955633624  -178954.93518872047  178244.6516706343
 463511.33872794395  -178955.4407555891  178244.3290111416
 463509.9753877725  -178954.69607176742  178242.82839051867
 463511.81660849886  -178957.37233753724  178243.03389995385
 463511.78041664406  -178952.47858256995  178242.6610603693
 -512569.3682201224  129375.57535607356  236796.316483806
 -512571.10034701234  129373.79918744952  236797.0894469305
 -512571.54171350895  129375.76815338632  236799.71635757657
 -512570.84862303606  129373.65910618113  236797.9453464132
 -512571.587319908  129373.50423337136  236799.8430581224
 -512571.8733834618  129375.24056965749  236797.45458344376
 -512571.25028789527  129373.98977858984  236796.5295988484
 -512572.64817342727  129374.357306796  236797.7665487064
 -465622.34708889  -712232.5920736329  244634.14411397628
 -465622.40742334793  -712234.8326577713  244633.19747058567
 -465622.62754832767  -712232.337850766  244632.82637568927
 -465624.3651756216  -712232.0363139602  244633.36488372344
 -465624.3231506599  -712232.2022322171  244632.9946945209
 -465624.49932646286  -712231.1116276294  244633.7322774087
 -465623.6363619702  -712233.5754664815  244632.9304350972
 -465626.69890451577  -712234.1004085733  244633.15958151463
 -1000736.13849091  262405.64246282045  382336.4341611592
 -1000734.97508923  262401.8092639212  382336.9477189244
 -1000737.6445697568  262403.03540925734  382338.7044014852
 -1000736.6024027688  262404.55775030295  382339.434024146
 -1000735.5027939092  262403.04096658767  382339.4103209064
 -1000737.68295268  262404.39638363244  382339.2689861185
 -1000739.2071677472  262405.4119844314  382340.1518656536
 -1000738.6418876993  262401.10134310764  382342.10150803224
 -644221.891502058  227882.91188704476  -181982.75240208188
 -644222.412685293  227884.185586218  -181980.91234623967
 -644221.6655034141  227884.07966579372  -181982.26094678376
 -644222.6872477883  227885.2758069764  -181983.0128991048
 -644221.3190893693  227884.4673968626  -181983.50477209387
 -644220.4109783641  227884.12751891953  -181983.39255227504
 -644223.2930562377  227885.5574267022  -181981.59608520003
 -644222.0198054402  227882.94379974343  -181982.76519237383
 254675.32891198655  -178696.75041541408  759242.1606938845
 254676.12314163917  -178697.33485361215  759243.1046129245
 254673.81335262844  -178695.5754898528  759245.0755574731
 254674.95740172436  -178697.9684297023  759242.9430108595
 254674.7553629393  -178697.05511119435  759243.7154738272
 254674.97200775216  -178696.40313455852  759243.287879773
 254674.94120494067  -178696.43951090807  759241.6974599271
 254673.1171542991  -178696.4349752981  759243.1685610467
 1234854.2512450872  -297380.6060078019  47110.98518186408
 1234854.6172022196  -297379.7264309753  47109.49136913272
 1234854.8029925444  -297377.9896773244  47111.45118188302
 1234855.434909477  -297376.9898605631  47109.94457637566
 1234854.51877823  -297378.5708347874  47111.44107731069
 1234854.9438811787  -297378.60035676527  47109.86347102429
 1234854.7992349584  -297379.2637867592  47108.84654262614
 1234855.1163582432  -297377.4805756672  47111.13045415092
 94982.47212118452  143826.3130930514  -562020.1419825508
 94983.32744199052  143825.37163573888  -562021.1124440926
 94982.0354890062  143825.87235742313  -562021.5976757385
 94981.72396010713  143827.52660213507  -562020.611812487
 94982.86947788483  143826.79564827672  -562022.0795824386
 94982.86122905518  143825.82488832163  -562020.1239004133
 94981.33196015305  143828.31460403354  -562020.2066306056
 94982.15835426905  143826.19847322803  -562019.1466757369
 -175315.45129614824  -1131638.9273967815  566981.2639773726
 -175315.59249282125  -1131638.6804464336  566980.8477950601
 -175314.57480203113  -1131638.8945616605  566980.1214917375
 -175315.27037294747  -1131638.9396215668  566981.3964087513
 -175314.98666764767  -1131640.083187264  566980.8621129991
 -175315.73712226457  -1131638.5405710547  566979.842269466
 -175314.46149559287  -1131639.0048869124  566980.7604964809
 -175315.40461098653  -1131638.3266163603  566980.6185239537
 303668.4130258683  -132378.38442873443  724811.8684623501
 303669.3799159456  -132378.96580379247  724812.1952487683
 303667.27486470406  -132379.47664950305  724813.0795589965
 303669.89329663775  -132379.4988911876  724812.0067533698
 303668.97036344686  -132381.23413764694  724813.0684034218
 303668.28330358886  -132378.28886831214  724811.8174074248
 303668.39622989134  -132379.89553231365  724811.6232326556
 303667.7897451405  -132378.50312358947  724812.2500132623
 443102.4280062284  -86745.70483306529  690915.9141592681
 443100.63022848114  -86741.52420133329  690915.768195571
 443102.099659238  -86745.13152164267  690912.6316315015
 443101.96384646575  -86744.21399328993  690911.2112709759
 443101.7218112812  -86745.44476650214  690913.5643173873
 443101.183065868  -86744.8765785299  690912.2810748734
 443101.77776935406  -86744.92106906058  690911.6588266222
 443103.39964083454  -86742.84885116594  690912.5315362036
 63948.03552193933  -740482.6066600842  -1075240.530493634
 63945.175054346655  -740481.9082044055  -1075239.0414963858
 63945.16476342081  -740482.3644948605  -1075240.4262014455
 63945.348705854645  -740481.793428537  -1075240.146513265
 63945.981483421936  -740482.3987554419  -1075240.7189601194
 63947.03076794241  -740482.1604406788  -1075240.6747876764
 63945.33639297649  -740481.6892677246  -1075240.9002913819
 63946.88117597623  -740481.056427713  -1075240.0688190707
 379219.49171914713  448827.91498151777  -741216.4492647225
 379219.8306545451  448830.2687307394  -741216.0209694926
 379220.9772918229  448829.6220853322  -741215.7747639692
 379221.8560705683  448830.0149160312  -741218.1516147701
 379219.47166099615  448829.846548332  -741216.9520800624
 379220.7530513086  448829.92343542865  -741218.083592244
 379221.8579746144  448828.5251624354  -741218.46845886
 379221.6634799544  448830.9417093989  -741219.2702760339
 -590391.3621903232  -470184.4957730248  -153106.33792122515
 -590389.2894277405  -470186.5588031228  -153107.3825681291
 -590392.3207094588  -470184.56027693534  -153106.3335542186
 -590391.031876607  -470185.5345680319  -153106.42614703544
 -590391.7950738277  -470185.41362079635  -153106.27559406796
 -590391.1588426129  -470183.78323787707  -153107.23146611248
 -590394.6805543854  -470183.66381588514  -153105.8186734538
 -590393.1137435638  -470185.08906510833  -153105.38609792967
 435900.2931703069  24476.83459868865  254080.9370280848
 435900.9254534612  24476.96301628661  254080.33418742853
 435898.9896896494  24477.446588710365  254082.55576121277
 435900.9860192846  24479.575810237835  254081.91665202903
 435900.9464356975  24480.082386011873  254081.2704069825
 435900.13496425987  24478.483775399705  254081.36005783663
 435900.17232753354  24478.07703133801  254081.59531226463
 435899.0395748329  24478.374351680653  254082.08758830104
 612390.6592335051  -506041.7081719748  -73931.08779030705
 612391.2151109633  -506043.3647808076  -73932.95813527037
 612389.7320693107  -506041.3218220911  -73931.95745113
 612390.0463893769  -506041.8901467972  -73932.06158020755
 612389.5438190012  -506043.61893246486  -73932.33145303465
 612389.7506508712  -506040.1890465486  -73933.59477169039
 612388.8989690191  -506039.8213006105  -73932.30698345734
 612388.9122434832  -506041.6665444754  -73932.16687341123
 -271710.37994024844  -302822.58936083206  -716549.7514231164
 -271709.83794649766  -302822.3264545413  -716548.8006778257
 -271710.3881778405  -302822.5441502442  -716549.3881579231
 -271710.11965330964  -302821.9610620073  -716551.0994146293
 -271711.1668813157  -302821.8473981441  -716548.7494778705
 -271709.8883306596  -302821.49161271565  -716550.1253225497
 -271710.3937574502  -302820.9901903182  -716549.1086139331
 -271710.60535475047  -302821.35155879625  -716549.069503357
 -126408.88253374131  -996069.1823881118  -143225.5809974666
 -126409.24929381147  -996068.2368689167  -143225.84432022015
 -126410.3358651978  -996069.4276322217  -143224.6852017813
 -126407.58049340732  -996069.0431039633  -143225.33036131263
 -126410.46482410068  -996068.4736574355  -143226.50969402955
 -126407.66664385328  -996069.1068856072  -143225.5902319046
 -126407.51368210505  -996069.7998359264  -143225.01957734305
 -126410.02575244212  -996068.7093263802  -143223.87374747838
 97479.78887546617  321501.56385248294  -379563.87163390015
 97476.94665225928  321502.2149753174  -379565.02074770385
 97480.03128998828  321501.9483946223  -379565.5819979435
 97479.45626525408  321502.07687433134  -379564.95034640183
 97477.21270955472  321501.17790052434  -379564.0966832529
 97478.60373496055  321502.4039210048  -379564.5450584532
 97477.92935751427  321502.356367228  -379564.996107796
 97478.27268589403  321500.48999884794  -379563.70908664656
 -77407.01733729112  787233.7935084669  -44409.87555060224
 -77407.93647724878  787235.7020137907  -44408.336554922585
 -77409.62169291009  787235.2390948025  -44408.62193666188
 -77407.41947560229  787233.6929679521  -44407.522376132336
 -77408.78321080173  787233.3173739626  -44408.10735198577
 -77406.90018145062  787236.5188205781  -44407.63532474195
 -77407.31245059987  787232.811371039  -44410.79510106737
 -77407.46221062659  787235.01274898  -44408.34981542526
 694394.8360981806  -438059.5393461958  -254408.86312725305
 694394.8096405263  -438059.9362297983  -254407.2346264707
 694393.9750827068  -438059.01960568863  -254407.43700210433
 694394.0840366378  -438059.00514399586  -254405.8981552093
 694394.1684446156  -438060.11438794254  -254408.55681127953
 694392.0153802182  -438059.99375623127  -254408.01342962228
 694392.8045186785  -438057.4078747063  -254406.8586687744
 694392.1475718853  -438057.975091749  -254406.34135601803
 -499862.24387281126  431486.81400146656  -81982.3921897406
 -499863.5317296887  431487.0207437935  -81982.68408039404
 -499863.9639510492  431486.75640247593  -81981.07116887391
 -499864.1308759084  431487.1949748437  -81981.7057369675
 -499862.4518773125  431486.9192861916  -81983.17066989337
 -499864.30581032566  431488.442662084  -81982.7836913086
 -499865.06980769447  431488.4115966216  -81982.88867144521
 -499864.0914782049  431487.8798395356  -81981.71826144973
 -312633.81584835483  -214050.3812895896  21659.209590877592
 -312635.4300808817  -214050.56438858967  21657.61383865599
 -312635.1577355382  -214049.32922853887  21660.169973853204
 -312633.3933654228  -214049.77022674977  21657.967104102503
 -312634.7212765064  -214051.6766394994  21659.496138624178
 -312634.9669752997  -214049.72449420745  21657.31148086405
 -312633.67008629086  -214050.41770326684  21657.523678839952
 -312635.48111046955  -214050.13250883817  21658.660886305395
 -94799.328760757  823230.2169910555  -113246.16455701992
 -94800.12488205008  823232.9223675121  -113244.8941420116
 -94800.73161414191  823230.9206509248  -113245.52785211315
 -94799.81515031609  823232.4200715822  -113245.22059202597
 -94798.50124500168  823231.6003603658  -113246.5081667678
 -94799.82854408928  823232.0454023486  -113245.8839515142
 -94799.55672371667  823231.3261827778  -113246.61234026687
 -94800.1337074085  823232.5680594258  -113246.78704560825
 329148.6843882761  142753.33203026964  870759.8680488702
 329149.5084406359  142756.23003274287  870760.5293809089
 329150.3456343757  142754.88089378533  870758.0402690764
 329149.7679288904  142754.80569852723  870758.1814189795
 329150.3878825584  142755.0076461997  870757.4616198698
 329150.9548759423  142755.2313242137  870758.309388863
 329150.7261752917  142755.27229373547  870758.5638126243
 329151.21521995886  142756.22698440007  870759.7767796366
 -425164.6071128263  120342.65169428354  -1118747.032390189
 -425163.91438494326  120340.69439948356  -1118746.080151324
 -425164.6078603651  120341.38452903776  -1118742.7571499331
 -425167.73133016936  120343.35158049528  -1118745.9440729092
 -425166.2816959205  120343.41740208396  -1118745.3385565996
 -425166.1706552281  120340.67388150407  -1118746.3369784495
 -425169.29120433575  120344.75844400248  -1118742.9279483156
 -425166.54509903287  120342.82942669115  -1118744.1316606728
 -369447.66214335733  207871.6821988845  986954.2699021016
 -369448.79445420176  207870.18942650076  986954.517870947
 -369448.9641897629  207869.8932804264  986955.5791392374
 -369449.668678117  207872.63496599745  986954.6536340385
 -369449.00312615896  207872.61675547343  986955.7843607939
 -369449.23480591626  207870.4535165213  986954.5991899746
 -369449.39459566434  207873.143148471  986956.6895262618
 -369450.7153915092  207870.72742467976  986955.8140353364
 58910.46167128161  -1036449.5484439508  255391.88461005452
 58909.295522357424  -1036451.8536277995  255393.36435913568
 58909.13800686626  -1036451.5030027129  255393.18061996417
 58909.87177206317  -1036449.7617200018  255393.6156605231